c colouring generated by benchmark framework
p edge 47 236
v 1 3
v 2 0
v 3 1
v 4 2
v 5 3
v 6 1
v 7 4
v 8 1
v 9 5
v 10 5
v 11 0
v 12 3
v 13 4
v 14 2
v 15 2
v 16 3
v 17 3
v 18 5
v 19 2
v 20 4
v 21 4
v 22 3
v 23 1
v 24 1
v 25 0
v 26 1
v 27 0
v 28 0
v 29 1
v 30 5
v 31 2
v 32 5
v 33 5
v 34 0
v 35 3
v 36 5
v 37 2
v 38 0
v 39 3
v 40 3
v 41 5
v 42 2
v 43 5
v 44 3
v 45 2
v 46 0
v 47 4
